g3 1 1 0	# problem r365mfc
 2 0 14 0 0 	# vars, constraints, objectives, ranges, eqns
 0 13 0 0 0 0	# nonlinear constrs, objs; ccons: lin, nonlin, nd, nzlb
 0 0	# network constraints: nonlinear, linear
 0 2 0 	# nonlinear vars in constraints, objectives, both
 0 0 0 1	# linear network variables; functions; arith, flags
 0 0 0 0 0 	# discrete variables: binary, integer, nonlinear (b,c,o)
 0 20 	# nonzeros in Jacobian, obj. gradient
 0 0	# max name lengths: constraints, variables
 0 0 0 0 0	# common exprs: b,c,o,c1,o1
O0 0
o0
o54
4
o43
v0
o2
n3
o43
v1
o2
n17.47
o43
o0
o16
o44
o2
n-1.236956521739131
v1
n1
o2
n16.29
o43
o0
o16
o44
o2
n-4.852173913043479
v1
n1
n-16.3423704513
O1 0
o5
v0
n-1.0
O2 0
o16
o5
v0
n-2.0
O3 0
o0
o54
3
o2
n3.0
o5
v1
n-1.0
o2
o2
n21.609630434782616
o5
o0
o16
o44
o2
n-1.236956521739131
v1
n1.0
n-1.0
o44
o2
n-1.236956521739131
v1
o2
o2
n79.04191304347826
o5
o0
o16
o44
o2
n-4.852173913043479
v1
n1.0
n-1.0
o44
o2
n-4.852173913043479
v1
n10.2889710846
O4 0
o54
5
o2
n-3.0
o5
v1
n-2.0
o2
o2
n-26.730173298676768
o5
o0
o16
o44
o2
n-1.236956521739131
v1
n1.0
n-1.0
o44
o2
n-1.236956521739131
v1
o2
o2
n-26.730173298676768
o5
o0
o16
o44
o2
n-1.236956521739131
v1
n1.0
n-2.0
o44
o2
n-2.473913043478262
v1
o2
o2
n-383.5251085066163
o5
o0
o16
o44
o2
n-4.852173913043479
v1
n1.0
n-1.0
o44
o2
n-4.852173913043479
v1
o2
o2
n-383.5251085066163
o5
o0
o16
o44
o2
n-4.852173913043479
v1
n1.0
n-2.0
o44
o2
n-9.704347826086957
v1
O5 0
o54
15
o2
o2
n2.20027
v0
o5
v1
n0.24
o2
o2
n-2.8624
v0
o5
v1
n0.67
o2
o2
n0.384559
o5
v0
n2
o5
v1
n0.5
o2
o2
n-0.621227
o5
v0
n2
o5
v1
n1.25
o2
o2
n0.0665967
o5
v0
n4
v1
o2
o2
o2
n-1.19383
v0
o5
v1
n3.35
o44
o2
n-1.0
v0
o2
o2
o2
n0.635935
o5
v0
n3
o5
v1
n2.5
o44
o2
n-1.0
v0
o2
o2
o2
n0.461728
o5
v0
n6
o5
v1
n0.96
o44
o2
n-1.0
v0
o2
o2
o2
n-0.533472
o5
v0
n6
o5
v1
n1.07
o44
o2
n-1.0
v0
o2
o2
o2
n-1.07101
o5
v0
n2
o5
v1
n5.6
o44
o16
o5
v0
n2
o2
o2
o2
n0.13929
o5
v0
n3
o5
v1
n6.9
o44
o16
o5
v0
n2
o2
o2
o2
n-0.385506
v0
o5
v1
n3
o44
o0
o2
n-0.97
o5
o0
v0
n-1.02
n2
o2
n-1.07
o5
o0
v1
n-1.48
n2
o2
o2
o2
n0.885653
v0
o5
v1
n3.6
o44
o0
o2
n-0.94
o5
o0
v0
n-0.62
n2
o2
n-1.08
o5
o0
v1
n-1.49
n2
o2
o2
o2
n0.226303
v0
o5
v1
n5
o44
o0
o2
n-2.15
o5
o0
v0
n-0.53
n2
o2
n-10.9
o5
o0
v1
n-1.01
n2
o2
o2
o2
n-0.166116
o5
v0
n2
o5
v1
n1.25
o44
o0
o2
n-2.66
o5
o0
v0
n-0.48
n2
o2
n-22.6
o5
o0
v1
n-1.16
n2
O6 0
o54
25
o2
n2.20027
o5
v1
n0.24
o2
n-2.8624
o5
v1
n0.67
o2
o2
n0.885653
o5
v1
n3.6
o44
o0
o2
n-1.08
o5
o0
v1
n-1.49
n2.0
o2
n-0.94
o5
o0
v0
n-0.62
n2.0
o2
o2
n0.769118
v0
o5
v1
n0.5
o2
o2
n0.2663868
v1
o5
v0
n3.0
o2
o2
n0.226303
o5
v1
n5.0
o44
o0
o2
n-2.15
o5
o0
v0
n-0.53
n2.0
o2
n-10.9
o5
o0
v1
n-1.01
n2.0
o2
o2
n-1.242454
v0
o5
v1
n1.25
o2
o2
n-0.385506
o5
v1
n3.0
o44
o0
o2
n-0.97
o5
o0
v0
n-1.02
n2.0
o2
n-1.07
o5
o0
v1
n-1.48
n2.0
o2
o2
n-1.19383
o5
v1
n3.35
o44
o2
n-1.0
v0
o2
o2
o2
n0.41786999999999996
o5
v0
n2.0
o5
v1
n6.9
o44
o16
o5
v0
n2.0
o2
o2
o2
n0.533472
o5
v0
n6.0
o5
v1
n1.07
o44
o2
n-1.0
v0
o2
o2
o2
n2.7703680000000004
o5
v0
n5.0
o5
v1
n0.96
o44
o2
n-1.0
v0
o2
o2
o2
n1.9078050000000002
o5
v0
n2.0
o5
v1
n2.5
o44
o2
n-1.0
v0
o2
o2
o2
n2.14202
o5
v0
n3.0
o5
v1
n5.6
o44
o16
o5
v0
n2.0
o2
o2
o2
n1.19383
v0
o5
v1
n3.35
o44
o2
n-1.0
v0
o2
o2
o2
n-0.461728
o5
v0
n6.0
o5
v1
n0.96
o44
o2
n-1.0
v0
o2
o2
o2
n-2.14202
v0
o5
v1
n5.6
o44
o16
o5
v0
n2.0
o2
o2
o2
n-0.27858
o5
v0
n4.0
o5
v1
n6.9
o44
o16
o5
v0
n2.0
o2
o2
o2
n-0.635935
o5
v0
n3.0
o5
v1
n2.5
o44
o2
n-1.0
v0
o2
o2
o2
n-0.332232
v0
o5
v1
n1.25
o44
o0
o2
n-2.66
o5
o0
v0
n-0.48
n2.0
o2
n-22.6
o5
o0
v1
n-1.16
n2.0
o2
o2
o2
n-3.2008319999999997
o5
v0
n5.0
o5
v1
n1.07
o44
o2
n-1.0
v0
o2
o2
o2
o2
n0.885653
v0
o5
v1
n3.6
o0
o2
n-1.88
v0
n1.1656
o44
o0
o2
n-1.08
o5
o0
v1
n-1.49
n2.0
o2
n-0.94
o5
o0
v0
n-0.62
n2.0
o2
o2
o2
o2
n0.226303
v0
o5
v1
n5.0
o0
o2
n-4.3
v0
n2.279
o44
o0
o2
n-2.15
o5
o0
v0
n-0.53
n2.0
o2
n-10.9
o5
o0
v1
n-1.01
n2.0
o2
o2
o2
o2
n-0.385506
v0
o5
v1
n3.0
o0
o2
n-1.94
v0
n1.9788
o44
o0
o2
n-0.97
o5
o0
v0
n-1.02
n2.0
o2
n-1.07
o5
o0
v1
n-1.48
n2.0
o2
o2
o2
o2
n-0.166116
o5
v0
n2.0
o5
v1
n1.25
o0
o2
n-5.32
v0
n2.5536
o44
o0
o2
n-2.66
o5
o0
v0
n-0.48
n2.0
o2
n-22.6
o5
o0
v1
n-1.16
n2.0
O7 0
o54
37
o2
n0.769118
o5
v1
n0.5
o2
n-1.242454
o5
v1
n1.25
o2
o2
n0.7991603999999999
v1
o5
v0
n2.0
o2
o2
n2.38766
o5
v1
n3.35
o44
o2
n-1.0
v0
o2
o2
n-2.14202
o5
v1
n5.6
o44
o16
o5
v0
n2.0
o2
o2
n-0.332232
o5
v1
n1.25
o44
o0
o2
n-2.66
o5
o0
v0
n-0.48
n2.0
o2
n-22.6
o5
o0
v1
n-1.16
n2.0
o2
o2
o2
n0.8837371200000002
o5
v1
n1.25
o5
v0
n2.0
o44
o0
o2
n-2.66
o5
o0
v0
n-0.48
n2.0
o2
n-22.6
o5
o0
v1
n-1.16
n2.0
o2
o2
o2
n0.8357399999999999
o5
v1
n6.9
v0
o44
o16
o5
v0
n2.0
o2
o2
o2
n13.851840000000003
o5
v1
n0.96
o5
v0
n4.0
o44
o2
n-1.0
v0
o2
o2
o2
n0.885653
o5
v1
n3.6
o0
o2
n-1.88
v0
n1.1656
o44
o0
o2
n-1.08
o5
o0
v1
n-1.49
n2.0
o2
n-0.94
o5
o0
v0
n-0.62
n2.0
o2
o2
o2
n10.7101
o5
v1
n5.6
o5
v0
n2.0
o44
o16
o5
v0
n2.0
o2
o2
o2
n0.461728
o5
v1
n0.96
o5
v0
n6.0
o44
o2
n-1.0
v0
o2
o2
o2
n3.8156100000000004
o5
v1
n2.5
v0
o44
o2
n-1.0
v0
o2
o2
o2
n0.55716
o5
v1
n6.9
o5
v0
n5.0
o44
o16
o5
v0
n2.0
o2
o2
o2
n0.635935
o5
v1
n2.5
o5
v0
n3.0
o44
o2
n-1.0
v0
o2
o2
o2
n0.74788164
v0
o5
v1
n3.0
o44
o0
o2
n-0.97
o5
o0
v0
n-1.02
n2.0
o2
n-1.07
o5
o0
v1
n-1.48
n2.0
o2
o2
o2
n0.74788164
o5
v1
n3.0
o0
v0
n-1.02
o44
o0
o2
n-0.97
o5
o0
v0
n-1.02
n2.0
o2
n-1.07
o5
o0
v1
n-1.48
n2.0
o2
o2
o2
n6.401663999999999
o5
v1
n1.07
o5
v0
n5.0
o44
o2
n-1.0
v0
o2
o2
o2
n0.226303
o5
v1
n5.0
o0
o2
n-4.3
v0
n2.279
o44
o0
o2
n-2.15
o5
o0
v0
n-0.53
n2.0
o2
n-10.9
o5
o0
v1
n-1.01
n2.0
o2
o2
o2
n-1.66502764
v0
o5
v1
n3.6
o44
o0
o2
n-1.08
o5
o0
v1
n-1.49
n2.0
o2
n-0.94
o5
o0
v0
n-0.62
n2.0
o2
o2
o2
n-1.66502764
o5
v1
n3.6
o0
v0
n-0.62
o44
o0
o2
n-1.08
o5
o0
v1
n-1.49
n2.0
o2
n-0.94
o5
o0
v0
n-0.62
n2.0
o2
o2
o2
n-16.00416
o5
v1
n1.07
o5
v0
n4.0
o44
o2
n-1.0
v0
o2
o2
o2
n-0.533472
o5
v1
n1.07
o5
v0
n6.0
o44
o2
n-1.0
v0
o2
o2
o2
n-5.540736000000001
o5
v1
n0.96
o5
v0
n5.0
o44
o2
n-1.0
v0
o2
o2
o2
n-0.385506
o5
v1
n3.0
o0
o2
n-1.94
v0
n1.9788
o44
o0
o2
n-0.97
o5
o0
v0
n-1.02
n2.0
o2
n-1.07
o5
o0
v1
n-1.48
n2.0
o2
o2
o2
n-3.8156100000000004
o5
v1
n2.5
o5
v0
n2.0
o44
o2
n-1.0
v0
o2
o2
o2
n-0.9731029
v0
o5
v1
n5.0
o44
o0
o2
n-2.15
o5
o0
v0
n-0.53
n2.0
o2
n-10.9
o5
o0
v1
n-1.01
n2.0
o2
o2
o2
n-0.9731029
o5
v1
n5.0
o0
v0
n-0.53
o44
o0
o2
n-2.15
o5
o0
v0
n-0.53
n2.0
o2
n-10.9
o5
o0
v1
n-1.01
n2.0
o2
o2
o2
n-4.28404
o5
v1
n5.6
o5
v0
n4.0
o44
o16
o5
v0
n2.0
o2
o2
o2
n-1.19383
v0
o5
v1
n3.35
o44
o2
n-1.0
v0
o2
o2
o2
n-1.95006
o5
v1
n6.9
o5
v0
n3.0
o44
o16
o5
v0
n2.0
o2
o2
o2
o2
n1.7674742400000003
v0
o5
v1
n1.25
o0
v0
n-0.48
o44
o0
o2
n-2.66
o5
o0
v0
n-0.48
n2.0
o2
n-22.6
o5
o0
v1
n-1.16
n2.0
o2
o2
o2
o2
n-0.332232
o5
v1
n1.25
v0
o0
o2
n-5.32
v0
n2.5536
o44
o0
o2
n-2.66
o5
o0
v0
n-0.48
n2.0
o2
n-22.6
o5
o0
v1
n-1.16
n2.0
o2
o2
o2
o2
o2
n0.8837371200000002
o5
v1
n1.25
o5
v0
n2.0
o0
v0
n-0.48
o0
o2
n-5.32
v0
n2.5536
o44
o0
o2
n-2.66
o5
o0
v0
n-0.48
n2.0
o2
n-22.6
o5
o0
v1
n-1.16
n2.0
o2
o2
o2
o2
o2
n0.74788164
v0
o5
v1
n3.0
o0
v0
n-1.02
o0
o2
n-1.94
v0
n1.9788
o44
o0
o2
n-0.97
o5
o0
v0
n-1.02
n2.0
o2
n-1.07
o5
o0
v1
n-1.48
n2.0
o2
o2
o2
o2
o2
n-1.66502764
v0
o5
v1
n3.6
o0
v0
n-0.62
o0
o2
n-1.88
v0
n1.1656
o44
o0
o2
n-1.08
o5
o0
v1
n-1.49
n2.0
o2
n-0.94
o5
o0
v0
n-0.62
n2.0
o2
o2
o2
o2
o2
n-0.9731029
v0
o5
v1
n5.0
o0
v0
n-0.53
o0
o2
n-4.3
v0
n2.279
o44
o0
o2
n-2.15
o5
o0
v0
n-0.53
n2.0
o2
n-10.9
o5
o0
v1
n-1.01
n2.0
O8 0
o54
19
o2
n0.0665967
o5
v0
n4.0
o2
o2
n0.1922795
o5
v0
n2.0
o5
v1
n-0.5
o2
o2
n0.5280648
v0
o5
v1
n-0.76
o2
o2
n-0.77653375
o5
v0
n2.0
o5
v1
n0.25
o2
o2
n-1.9178080000000002
v0
o5
v1
n-0.32999999999999996
o2
o2
o2
n3.1883508000000003
v0
o5
v1
n2.6
o44
o0
o2
n-1.08
o5
o0
v1
n-1.49
n2.0
o2
n-0.94
o5
o0
v0
n-0.62
n2.0
o2
o2
o2
n0.44325888
o5
v0
n6.0
o5
v1
n-0.040000000000000036
o44
o2
n-1.0
v0
o2
o2
o2
n0.961101
o5
v0
n3.0
o5
v1
n5.9
o44
o16
o5
v0
n2.0
o2
o2
o2
n1.131515
v0
o5
v1
n4.0
o44
o0
o2
n-2.15
o5
o0
v0
n-0.53
n2.0
o2
n-10.9
o5
o0
v1
n-1.01
n2.0
o2
o2
o2
n1.5898375
o5
v0
n3.0
o5
v1
n1.5
o44
o2
n-1.0
v0
o2
o2
o2
n-1.1565180000000002
v0
o5
v1
n2.0
o44
o0
o2
n-0.97
o5
o0
v0
n-1.02
n2.0
o2
n-1.07
o5
o0
v1
n-1.48
n2.0
o2
o2
o2
n-0.20764500000000002
o5
v0
n2.0
o5
v1
n0.25
o44
o0
o2
n-2.66
o5
o0
v0
n-0.48
n2.0
o2
n-22.6
o5
o0
v1
n-1.16
n2.0
o2
o2
o2
n-3.9993305
v0
o5
v1
n2.35
o44
o2
n-1.0
v0
o2
o2
o2
n-0.5708150399999999
o5
v0
n6.0
o5
v1
n0.07000000000000006
o44
o2
n-1.0
v0
o2
o2
o2
n-5.997656
o5
v0
n2.0
o5
v1
n4.6
o44
o16
o5
v0
n2.0
o2
o2
o2
o2
n0.885653
v0
o5
v1
n3.6
o0
o2
n-2.16
v1
n3.2184000000000004
o44
o0
o2
n-1.08
o5
o0
v1
n-1.49
n2.0
o2
n-0.94
o5
o0
v0
n-0.62
n2.0
o2
o2
o2
o2
n0.226303
v0
o5
v1
n5.0
o0
o2
n-21.8
v1
n22.018
o44
o0
o2
n-2.15
o5
o0
v0
n-0.53
n2.0
o2
n-10.9
o5
o0
v1
n-1.01
n2.0
o2
o2
o2
o2
n-0.385506
v0
o5
v1
n3.0
o0
o2
n-2.14
v1
n3.1672000000000002
o44
o0
o2
n-0.97
o5
o0
v0
n-1.02
n2.0
o2
n-1.07
o5
o0
v1
n-1.48
n2.0
o2
o2
o2
o2
n-0.166116
o5
v0
n2.0
o5
v1
n1.25
o0
o2
n-45.2
v1
n52.432
o44
o0
o2
n-2.66
o5
o0
v0
n-0.48
n2.0
o2
n-22.6
o5
o0
v1
n-1.16
n2.0
O9 0
o54
30
o2
o2
n0.63287664
v0
o5
v1
n-1.33
o2
o2
n-0.1941334375
o5
v0
n2.0
o5
v1
n-0.75
o2
o2
n-0.09613975
o5
v0
n2.0
o5
v1
n-1.5
o2
o2
n-0.401329248
v0
o5
v1
n-1.76
o2
o2
o2
n8.289712080000001
v0
o5
v1
n1.6
o44
o0
o2
n-1.08
o5
o0
v1
n-1.49
n2.0
o2
n-0.94
o5
o0
v0
n-0.62
n2.0
o2
o2
o2
n0.8249828400000001
v0
o5
v1
n3.0
o44
o0
o2
n-0.97
o5
o0
v0
n-1.02
n2.0
o2
n-1.07
o5
o0
v1
n-1.48
n2.0
o2
o2
o2
n5.670495900000001
o5
v0
n3.0
o5
v1
n4.9
o44
o16
o5
v0
n2.0
o2
o2
o2
n4.52606
v0
o5
v1
n3.0
o44
o0
o2
n-2.15
o5
o0
v0
n-0.53
n2.0
o2
n-10.9
o5
o0
v1
n-1.01
n2.0
o2
o2
o2
n2.38475625
o5
v0
n3.0
o5
v1
n0.5
o44
o2
n-1.0
v0
o2
o2
o2
n7.508443200000001
o5
v0
n2.0
o5
v1
n1.25
o44
o0
o2
n-2.66
o5
o0
v0
n-0.48
n2.0
o2
n-22.6
o5
o0
v1
n-1.16
n2.0
o2
o2
o2
n-2.3130360000000003
v0
v1
o44
o0
o2
n-0.97
o5
o0
v0
n-1.02
n2.0
o2
n-1.07
o5
o0
v1
n-1.48
n2.0
o2
o2
o2
n-0.03995705280000003
o5
v0
n6.0
o5
v1
n-0.9299999999999999
o44
o2
n-1.0
v0
o2
o2
o2
n-27.589217599999998
o5
v0
n2.0
o5
v1
n3.5999999999999996
o44
o16
o5
v0
n2.0
o2
o2
o2
n-4.9334054
v0
o5
v1
n5.0
o44
o0
o2
n-2.15
o5
o0
v0
n-0.53
n2.0
o2
n-10.9
o5
o0
v1
n-1.01
n2.0
o2
o2
o2
n-0.051911250000000006
o5
v0
n2.0
o5
v1
n-0.75
o44
o0
o2
n-2.66
o5
o0
v0
n-0.48
n2.0
o2
n-22.6
o5
o0
v1
n-1.16
n2.0
o2
o2
o2
n-1.91301048
v0
o5
v1
n3.6
o44
o0
o2
n-1.08
o5
o0
v1
n-1.49
n2.0
o2
n-0.94
o5
o0
v0
n-0.62
n2.0
o2
o2
o2
n-0.017730355200000016
o5
v0
n6.0
o5
v1
n-1.04
o44
o2
n-1.0
v0
o2
o2
o2
n-9.398426675000001
v0
o5
v1
n1.35
o44
o2
n-1.0
v0
o2
o2
o2
o2
n3.1883508000000003
v0
o5
v1
n2.6
o0
o2
n-2.16
v1
n3.2184000000000004
o44
o0
o2
n-1.08
o5
o0
v1
n-1.49
n2.0
o2
n-0.94
o5
o0
v0
n-0.62
n2.0
o2
o2
o2
o2
n1.131515
v0
o5
v1
n4.0
o0
o2
n-21.8
v1
n22.018
o44
o0
o2
n-2.15
o5
o0
v0
n-0.53
n2.0
o2
n-10.9
o5
o0
v1
n-1.01
n2.0
o2
o2
o2
o2
n9.385554
o5
v0
n2.0
o5
v1
n0.25
o0
v1
n-1.16
o44
o0
o2
n-2.66
o5
o0
v0
n-0.48
n2.0
o2
n-22.6
o5
o0
v1
n-1.16
n2.0
o2
o2
o2
o2
n2.4749485200000003
v0
o5
v1
n2.0
o0
v1
n-1.48
o44
o0
o2
n-0.97
o5
o0
v0
n-1.02
n2.0
o2
n-1.07
o5
o0
v1
n-1.48
n2.0
o2
o2
o2
o2
n-1.1565180000000002
v0
o5
v1
n2.0
o0
o2
n-2.14
v1
n3.1672000000000002
o44
o0
o2
n-0.97
o5
o0
v0
n-1.02
n2.0
o2
n-1.07
o5
o0
v1
n-1.48
n2.0
o2
o2
o2
o2
n-0.20764500000000002
o5
v0
n2.0
o5
v1
n0.25
o0
o2
n-45.2
v1
n52.432
o44
o0
o2
n-2.66
o5
o0
v0
n-0.48
n2.0
o2
n-22.6
o5
o0
v1
n-1.16
n2.0
o2
o2
o2
o2
n-24.667027
v0
o5
v1
n4.0
o0
v1
n-1.01
o44
o0
o2
n-2.15
o5
o0
v0
n-0.53
n2.0
o2
n-10.9
o5
o0
v1
n-1.01
n2.0
o2
o2
o2
o2
n-6.886837728000001
v0
o5
v1
n2.6
o0
v1
n-1.49
o44
o0
o2
n-1.08
o5
o0
v1
n-1.49
n2.0
o2
n-0.94
o5
o0
v0
n-0.62
n2.0
o2
o2
o2
o2
o2
n0.8249828400000001
v0
o5
v1
n3.0
o0
v1
n-1.48
o0
o2
n-2.14
v1
n3.1672000000000002
o44
o0
o2
n-0.97
o5
o0
v0
n-1.02
n2.0
o2
n-1.07
o5
o0
v1
n-1.48
n2.0
o2
o2
o2
o2
o2
n7.508443200000001
o5
v0
n2.0
o5
v1
n1.25
o0
v1
n-1.16
o0
o2
n-45.2
v1
n52.432
o44
o0
o2
n-2.66
o5
o0
v0
n-0.48
n2.0
o2
n-22.6
o5
o0
v1
n-1.16
n2.0
o2
o2
o2
o2
o2
n-4.9334054
v0
o5
v1
n5.0
o0
v1
n-1.01
o0
o2
n-21.8
v1
n22.018
o44
o0
o2
n-2.15
o5
o0
v0
n-0.53
n2.0
o2
n-10.9
o5
o0
v1
n-1.01
n2.0
o2
o2
o2
o2
o2
n-1.91301048
v0
o5
v1
n3.6
o0
v1
n-1.49
o0
o2
n-2.16
v1
n3.2184000000000004
o44
o0
o2
n-1.08
o5
o0
v1
n-1.49
n2.0
o2
n-0.94
o5
o0
v0
n-0.62
n2.0
O10 0
o54
33
o2
n0.5280648
o5
v1
n-0.76
o2
n0.2663868
o5
v0
n3.0
o2
n-1.9178080000000002
o5
v1
n-0.32999999999999996
o2
o2
n3.1883508000000003
o5
v1
n2.6
o44
o0
o2
n-1.08
o5
o0
v1
n-1.49
n2.0
o2
n-0.94
o5
o0
v0
n-0.62
n2.0
o2
o2
n0.384559
v0
o5
v1
n-0.5
o2
o2
n1.131515
o5
v1
n4.0
o44
o0
o2
n-2.15
o5
o0
v0
n-0.53
n2.0
o2
n-10.9
o5
o0
v1
n-1.01
n2.0
o2
o2
n-1.1565180000000002
o5
v1
n2.0
o44
o0
o2
n-0.97
o5
o0
v0
n-1.02
n2.0
o2
n-1.07
o5
o0
v1
n-1.48
n2.0
o2
o2
n-1.5530675
v0
o5
v1
n0.25
o2
o2
n-3.9993305
o5
v1
n2.35
o44
o2
n-1.0
v0
o2
o2
o2
n2.8833029999999997
o5
v1
n5.9
o5
v0
n2.0
o44
o16
o5
v0
n2.0
o2
o2
o2
n0.8249828400000001
o5
v1
n3.0
o0
v1
n-1.48
o44
o0
o2
n-0.97
o5
o0
v0
n-1.02
n2.0
o2
n-1.07
o5
o0
v1
n-1.48
n2.0
o2
o2
o2
n3.9993305
v0
o5
v1
n2.35
o44
o2
n-1.0
v0
o2
o2
o2
n0.5708150399999999
o5
v1
n0.07000000000000006
o5
v0
n6.0
o44
o2
n-1.0
v0
o2
o2
o2
n4.7695125
o5
v1
n1.5
o5
v0
n2.0
o44
o2
n-1.0
v0
o2
o2
o2
n2.6595532800000004
o5
v1
n-0.040000000000000036
o5
v0
n5.0
o44
o2
n-1.0
v0
o2
o2
o2
n11.995312
o5
v1
n4.6
o5
v0
n3.0
o44
o16
o5
v0
n2.0
o2
o2
o2
n-3.42489024
o5
v1
n0.07000000000000006
o5
v0
n5.0
o44
o2
n-1.0
v0
o2
o2
o2
n-4.9334054
o5
v1
n5.0
o0
v1
n-1.01
o44
o0
o2
n-2.15
o5
o0
v0
n-0.53
n2.0
o2
n-10.9
o5
o0
v1
n-1.01
n2.0
o2
o2
o2
n-0.41529000000000005
v0
o5
v1
n0.25
o44
o0
o2
n-2.66
o5
o0
v0
n-0.48
n2.0
o2
n-22.6
o5
o0
v1
n-1.16
n2.0
o2
o2
o2
n-0.44325888
o5
v1
n-0.040000000000000036
o5
v0
n6.0
o44
o2
n-1.0
v0
o2
o2
o2
n-1.91301048
o5
v1
n3.6
o0
v1
n-1.49
o44
o0
o2
n-1.08
o5
o0
v1
n-1.49
n2.0
o2
n-0.94
o5
o0
v0
n-0.62
n2.0
o2
o2
o2
n-1.922202
o5
v1
n5.9
o5
v0
n4.0
o44
o16
o5
v0
n2.0
o2
o2
o2
n-11.995312
v0
o5
v1
n4.6
o44
o16
o5
v0
n2.0
o2
o2
o2
n-1.5898375
o5
v1
n1.5
o5
v0
n3.0
o44
o2
n-1.0
v0
o2
o2
o2
o2
n3.1883508000000003
v0
o5
v1
n2.6
o0
o2
n-1.88
v0
n1.1656
o44
o0
o2
n-1.08
o5
o0
v1
n-1.49
n2.0
o2
n-0.94
o5
o0
v0
n-0.62
n2.0
o2
o2
o2
o2
n1.131515
v0
o5
v1
n4.0
o0
o2
n-4.3
v0
n2.279
o44
o0
o2
n-2.15
o5
o0
v0
n-0.53
n2.0
o2
n-10.9
o5
o0
v1
n-1.01
n2.0
o2
o2
o2
o2
n15.016886400000002
v0
o5
v1
n1.25
o0
v1
n-1.16
o44
o0
o2
n-2.66
o5
o0
v0
n-0.48
n2.0
o2
n-22.6
o5
o0
v1
n-1.16
n2.0
o2
o2
o2
o2
n-1.1565180000000002
v0
o5
v1
n2.0
o0
o2
n-1.94
v0
n1.9788
o44
o0
o2
n-0.97
o5
o0
v0
n-1.02
n2.0
o2
n-1.07
o5
o0
v1
n-1.48
n2.0
o2
o2
o2
o2
n-0.20764500000000002
o5
v1
n0.25
o5
v0
n2.0
o0
o2
n-5.32
v0
n2.5536
o44
o0
o2
n-2.66
o5
o0
v0
n-0.48
n2.0
o2
n-22.6
o5
o0
v1
n-1.16
n2.0
o2
o2
o2
o2
o2
n0.8249828400000001
v0
o5
v1
n3.0
o0
v1
n-1.48
o0
o2
n-1.94
v0
n1.9788
o44
o0
o2
n-0.97
o5
o0
v0
n-1.02
n2.0
o2
n-1.07
o5
o0
v1
n-1.48
n2.0
o2
o2
o2
o2
o2
n7.508443200000001
o5
v1
n1.25
o5
v0
n2.0
o0
v1
n-1.16
o0
o2
n-5.32
v0
n2.5536
o44
o0
o2
n-2.66
o5
o0
v0
n-0.48
n2.0
o2
n-22.6
o5
o0
v1
n-1.16
n2.0
o2
o2
o2
o2
o2
n-4.9334054
v0
o5
v1
n5.0
o0
v1
n-1.01
o0
o2
n-4.3
v0
n2.279
o44
o0
o2
n-2.15
o5
o0
v0
n-0.53
n2.0
o2
n-10.9
o5
o0
v1
n-1.01
n2.0
o2
o2
o2
o2
o2
n-1.91301048
v0
o5
v1
n3.6
o0
v1
n-1.49
o0
o2
n-1.88
v0
n1.1656
o44
o0
o2
n-1.08
o5
o0
v1
n-1.49
n2.0
o2
n-0.94
o5
o0
v0
n-0.62
n2.0
O11 0
o0
o54
6
o2
n0.26150334292302974
o5
o0
o16
o3
n1
v1
n1
n0.197
o2
n1.2960567437114034
o5
o0
o16
o3
n1
v1
n1
n0.347
o2
n1.1054962724493822
o5
o0
o16
o3
n1
v1
n1
n0.68
o2
n-1.9624874038489026
o5
o0
o16
o3
n1
v1
n1
n4.264
o2
n6.877950747305875
o5
o0
o16
o3
n1
v1
n1
n5.751
o2
n-9775.478987767088
o5
o0
o16
o3
n1
v1
n1
n18.372
n1.0
O12 0
o44
o2
v1
o54
6
o2
n-2.321900801891659
o5
o0
o16
o3
n1
v1
n1
n0.326
o2
n-12.318486255432273
o5
o0
o16
o3
n1
v1
n1
n1.306
o2
n29.90077432524069
o5
o0
o16
o3
n1
v1
n1
n2.168
o2
n-52.89208803147019
o5
o0
o16
o3
n1
v1
n1
n3.262
o2
n57.15577614474706
o5
o0
o16
o3
n1
v1
n1
n5.147
o2
n-6130.399386014779
o5
o0
o16
o3
n1
v1
n1
n15.037
O13 0
n0.0
x2
0 1.00000001
1 1.0
r
b
3
3
k1
0
G0 2
0 0
1 10.2889710846
G1 1
0 0
G2 1
0 0
G3 1
1 0
G4 1
1 0
G5 2
0 0
1 0
G6 2
0 0
1 0
G7 2
0 0
1 0
G8 2
0 0
1 0
G9 2
0 0
1 0
G10 2
0 0
1 0
G11 1
1 0
G12 1
1 0
